p cnf 216 1672
1 2 3 4 5 6 0
-1 55 0
-2 55 0
-1 -2 56 0
-3 57 0
-4 57 0
-3 -4 58 0
-5 59 0
-6 59 0
-5 -6 60 0
-57 61 0
-59 61 0
-57 -59 62 0
-58 63 0
-60 63 0
-58 -60 64 0
-62 65 0
-63 65 0
-62 -63 66 0
-55 67 0
-61 67 0
-55 -61 68 0
-56 69 0
-65 69 0
-56 -65 70 0
-68 71 0
-69 71 0
-68 -69 72 0
-71 0
19 20 21 22 23 24 0
-19 73 0
-20 73 0
-19 -20 74 0
-21 75 0
-22 75 0
-21 -22 76 0
-23 77 0
-24 77 0
-23 -24 78 0
-75 79 0
-77 79 0
-75 -77 80 0
-76 81 0
-78 81 0
-76 -78 82 0
-80 83 0
-81 83 0
-80 -81 84 0
-73 85 0
-79 85 0
-73 -79 86 0
-74 87 0
-83 87 0
-74 -83 88 0
-86 89 0
-87 89 0
-86 -87 90 0
-89 0
37 38 39 40 41 42 0
-37 91 0
-38 91 0
-37 -38 92 0
-39 93 0
-40 93 0
-39 -40 94 0
-41 95 0
-42 95 0
-41 -42 96 0
-93 97 0
-95 97 0
-93 -95 98 0
-94 99 0
-96 99 0
-94 -96 100 0
-98 101 0
-99 101 0
-98 -99 102 0
-91 103 0
-97 103 0
-91 -97 104 0
-92 105 0
-101 105 0
-92 -101 106 0
-104 107 0
-105 107 0
-104 -105 108 0
-107 0
7 8 9 10 11 12 0
-7 109 0
-8 109 0
-7 -8 110 0
-9 111 0
-10 111 0
-9 -10 112 0
-11 113 0
-12 113 0
-11 -12 114 0
-111 115 0
-113 115 0
-111 -113 116 0
-112 117 0
-114 117 0
-112 -114 118 0
-116 119 0
-117 119 0
-116 -117 120 0
-109 121 0
-115 121 0
-109 -115 122 0
-110 123 0
-119 123 0
-110 -119 124 0
-122 125 0
-123 125 0
-122 -123 126 0
-125 0
25 26 27 28 29 30 0
-25 127 0
-26 127 0
-25 -26 128 0
-27 129 0
-28 129 0
-27 -28 130 0
-29 131 0
-30 131 0
-29 -30 132 0
-129 133 0
-131 133 0
-129 -131 134 0
-130 135 0
-132 135 0
-130 -132 136 0
-134 137 0
-135 137 0
-134 -135 138 0
-127 139 0
-133 139 0
-127 -133 140 0
-128 141 0
-137 141 0
-128 -137 142 0
-140 143 0
-141 143 0
-140 -141 144 0
-143 0
43 44 45 46 47 48 0
-43 145 0
-44 145 0
-43 -44 146 0
-45 147 0
-46 147 0
-45 -46 148 0
-47 149 0
-48 149 0
-47 -48 150 0
-147 151 0
-149 151 0
-147 -149 152 0
-148 153 0
-150 153 0
-148 -150 154 0
-152 155 0
-153 155 0
-152 -153 156 0
-145 157 0
-151 157 0
-145 -151 158 0
-146 159 0
-155 159 0
-146 -155 160 0
-158 161 0
-159 161 0
-158 -159 162 0
-161 0
13 14 15 16 17 18 0
-13 163 0
-14 163 0
-13 -14 164 0
-15 165 0
-16 165 0
-15 -16 166 0
-17 167 0
-18 167 0
-17 -18 168 0
-165 169 0
-167 169 0
-165 -167 170 0
-166 171 0
-168 171 0
-166 -168 172 0
-170 173 0
-171 173 0
-170 -171 174 0
-163 175 0
-169 175 0
-163 -169 176 0
-164 177 0
-173 177 0
-164 -173 178 0
-176 179 0
-177 179 0
-176 -177 180 0
-179 0
31 32 33 34 35 36 0
-31 181 0
-32 181 0
-31 -32 182 0
-33 183 0
-34 183 0
-33 -34 184 0
-35 185 0
-36 185 0
-35 -36 186 0
-183 187 0
-185 187 0
-183 -185 188 0
-184 189 0
-186 189 0
-184 -186 190 0
-188 191 0
-189 191 0
-188 -189 192 0
-181 193 0
-187 193 0
-181 -187 194 0
-182 195 0
-191 195 0
-182 -191 196 0
-194 197 0
-195 197 0
-194 -195 198 0
-197 0
49 50 51 52 53 54 0
-49 199 0
-50 199 0
-49 -50 200 0
-51 201 0
-52 201 0
-51 -52 202 0
-53 203 0
-54 203 0
-53 -54 204 0
-201 205 0
-203 205 0
-201 -203 206 0
-202 207 0
-204 207 0
-202 -204 208 0
-206 209 0
-207 209 0
-206 -207 210 0
-199 211 0
-205 211 0
-199 -205 212 0
-200 213 0
-209 213 0
-200 -209 214 0
-212 215 0
-213 215 0
-212 -213 216 0
-215 0
-1 -19 -37 8 0
-1 -20 -37 8 0
-1 -21 -37 8 0
-1 -22 -37 8 0
-1 -23 -37 8 0
-1 -24 -37 8 0
-1 -19 -38 8 0
-1 -20 -38 8 0
-1 -21 -38 8 0
-1 -22 -38 8 0
-1 -23 -38 8 0
-1 -24 -38 8 0
-1 -19 -39 8 0
-1 -20 -39 8 0
-1 -21 -39 8 0
-1 -22 -39 8 0
-1 -23 -39 8 0
-1 -24 -39 8 0
-1 -19 -40 8 0
-1 -20 -40 8 0
-1 -21 -40 8 0
-1 -22 -40 8 0
-1 -23 -40 8 0
-1 -24 -40 8 0
-1 -19 -41 8 0
-1 -20 -41 8 0
-1 -21 -41 8 0
-1 -22 -41 8 0
-1 -23 -41 8 0
-1 -24 -41 8 0
-1 -19 -42 8 0
-1 -20 -42 8 0
-1 -21 -42 8 0
-1 -22 -42 8 0
-1 -23 -42 8 0
-1 -24 -42 8 0
-2 -19 -37 8 0
-2 -20 -37 8 0
-2 -21 -37 8 0
-2 -22 -37 8 0
-2 -23 -37 8 0
-2 -24 -37 8 0
-2 -19 -38 8 0
-2 -20 -38 9 0
-2 -21 -38 9 0
-2 -22 -38 9 0
-2 -23 -38 9 0
-2 -24 -38 9 0
-2 -19 -39 8 0
-2 -20 -39 9 0
-2 -21 -39 9 0
-2 -22 -39 9 0
-2 -23 -39 9 0
-2 -24 -39 9 0
-2 -19 -40 8 0
-2 -20 -40 9 0
-2 -21 -40 9 0
-2 -22 -40 9 0
-2 -23 -40 9 0
-2 -24 -40 9 0
-2 -19 -41 8 0
-2 -20 -41 9 0
-2 -21 -41 9 0
-2 -22 -41 9 0
-2 -23 -41 9 0
-2 -24 -41 9 0
-2 -19 -42 8 0
-2 -20 -42 9 0
-2 -21 -42 9 0
-2 -22 -42 9 0
-2 -23 -42 9 0
-2 -24 -42 9 0
-3 -19 -37 8 0
-3 -20 -37 8 0
-3 -21 -37 8 0
-3 -22 -37 8 0
-3 -23 -37 8 0
-3 -24 -37 8 0
-3 -19 -38 8 0
-3 -20 -38 9 0
-3 -21 -38 9 0
-3 -22 -38 9 0
-3 -23 -38 9 0
-3 -24 -38 9 0
-3 -19 -39 8 0
-3 -20 -39 9 0
-3 -21 -39 10 0
-3 -22 -39 10 0
-3 -23 -39 10 0
-3 -24 -39 10 0
-3 -19 -40 8 0
-3 -20 -40 9 0
-3 -21 -40 10 0
-3 -22 -40 10 0
-3 -23 -40 10 0
-3 -24 -40 10 0
-3 -19 -41 8 0
-3 -20 -41 9 0
-3 -21 -41 10 0
-3 -22 -41 10 0
-3 -23 -41 10 0
-3 -24 -41 10 0
-3 -19 -42 8 0
-3 -20 -42 9 0
-3 -21 -42 10 0
-3 -22 -42 10 0
-3 -23 -42 10 0
-3 -24 -42 10 0
-4 -19 -37 8 0
-4 -20 -37 8 0
-4 -21 -37 8 0
-4 -22 -37 8 0
-4 -23 -37 8 0
-4 -24 -37 8 0
-4 -19 -38 8 0
-4 -20 -38 9 0
-4 -21 -38 9 0
-4 -22 -38 9 0
-4 -23 -38 9 0
-4 -24 -38 9 0
-4 -19 -39 8 0
-4 -20 -39 9 0
-4 -21 -39 10 0
-4 -22 -39 10 0
-4 -23 -39 10 0
-4 -24 -39 10 0
-4 -19 -40 8 0
-4 -20 -40 9 0
-4 -21 -40 10 0
-4 -22 -40 11 0
-4 -23 -40 11 0
-4 -24 -40 11 0
-4 -19 -41 8 0
-4 -20 -41 9 0
-4 -21 -41 10 0
-4 -22 -41 11 0
-4 -23 -41 11 0
-4 -24 -41 11 0
-4 -19 -42 8 0
-4 -20 -42 9 0
-4 -21 -42 10 0
-4 -22 -42 11 0
-4 -23 -42 11 0
-4 -24 -42 11 0
-5 -19 -37 8 0
-5 -20 -37 8 0
-5 -21 -37 8 0
-5 -22 -37 8 0
-5 -23 -37 8 0
-5 -24 -37 8 0
-5 -19 -38 8 0
-5 -20 -38 9 0
-5 -21 -38 9 0
-5 -22 -38 9 0
-5 -23 -38 9 0
-5 -24 -38 9 0
-5 -19 -39 8 0
-5 -20 -39 9 0
-5 -21 -39 10 0
-5 -22 -39 10 0
-5 -23 -39 10 0
-5 -24 -39 10 0
-5 -19 -40 8 0
-5 -20 -40 9 0
-5 -21 -40 10 0
-5 -22 -40 11 0
-5 -23 -40 11 0
-5 -24 -40 11 0
-5 -19 -41 8 0
-5 -20 -41 9 0
-5 -21 -41 10 0
-5 -22 -41 11 0
-5 -23 -41 12 0
-5 -24 -41 12 0
-5 -19 -42 8 0
-5 -20 -42 9 0
-5 -21 -42 10 0
-5 -22 -42 11 0
-5 -23 -42 12 0
-5 -24 -42 12 0
-6 -19 -37 8 0
-6 -20 -37 8 0
-6 -21 -37 8 0
-6 -22 -37 8 0
-6 -23 -37 8 0
-6 -24 -37 8 0
-6 -19 -38 8 0
-6 -20 -38 9 0
-6 -21 -38 9 0
-6 -22 -38 9 0
-6 -23 -38 9 0
-6 -24 -38 9 0
-6 -19 -39 8 0
-6 -20 -39 9 0
-6 -21 -39 10 0
-6 -22 -39 10 0
-6 -23 -39 10 0
-6 -24 -39 10 0
-6 -19 -40 8 0
-6 -20 -40 9 0
-6 -21 -40 10 0
-6 -22 -40 11 0
-6 -23 -40 11 0
-6 -24 -40 11 0
-6 -19 -41 8 0
-6 -20 -41 9 0
-6 -21 -41 10 0
-6 -22 -41 11 0
-6 -23 -41 12 0
-6 -24 -41 12 0
-6 -19 -42 8 0
-6 -20 -42 9 0
-6 -21 -42 10 0
-6 -22 -42 11 0
-6 -23 -42 12 0
-6 -24 -42 7 0
-19 -1 -37 26 0
-19 -2 -37 26 0
-19 -3 -37 26 0
-19 -4 -37 26 0
-19 -5 -37 26 0
-19 -6 -37 26 0
-19 -1 -38 26 0
-19 -2 -38 26 0
-19 -3 -38 26 0
-19 -4 -38 26 0
-19 -5 -38 26 0
-19 -6 -38 26 0
-19 -1 -39 26 0
-19 -2 -39 26 0
-19 -3 -39 26 0
-19 -4 -39 26 0
-19 -5 -39 26 0
-19 -6 -39 26 0
-19 -1 -40 26 0
-19 -2 -40 26 0
-19 -3 -40 26 0
-19 -4 -40 26 0
-19 -5 -40 26 0
-19 -6 -40 26 0
-19 -1 -41 26 0
-19 -2 -41 26 0
-19 -3 -41 26 0
-19 -4 -41 26 0
-19 -5 -41 26 0
-19 -6 -41 26 0
-19 -1 -42 26 0
-19 -2 -42 26 0
-19 -3 -42 26 0
-19 -4 -42 26 0
-19 -5 -42 26 0
-19 -6 -42 26 0
-20 -1 -37 26 0
-20 -2 -37 26 0
-20 -3 -37 26 0
-20 -4 -37 26 0
-20 -5 -37 26 0
-20 -6 -37 26 0
-20 -1 -38 26 0
-20 -2 -38 27 0
-20 -3 -38 27 0
-20 -4 -38 27 0
-20 -5 -38 27 0
-20 -6 -38 27 0
-20 -1 -39 26 0
-20 -2 -39 27 0
-20 -3 -39 27 0
-20 -4 -39 27 0
-20 -5 -39 27 0
-20 -6 -39 27 0
-20 -1 -40 26 0
-20 -2 -40 27 0
-20 -3 -40 27 0
-20 -4 -40 27 0
-20 -5 -40 27 0
-20 -6 -40 27 0
-20 -1 -41 26 0
-20 -2 -41 27 0
-20 -3 -41 27 0
-20 -4 -41 27 0
-20 -5 -41 27 0
-20 -6 -41 27 0
-20 -1 -42 26 0
-20 -2 -42 27 0
-20 -3 -42 27 0
-20 -4 -42 27 0
-20 -5 -42 27 0
-20 -6 -42 27 0
-21 -1 -37 26 0
-21 -2 -37 26 0
-21 -3 -37 26 0
-21 -4 -37 26 0
-21 -5 -37 26 0
-21 -6 -37 26 0
-21 -1 -38 26 0
-21 -2 -38 27 0
-21 -3 -38 27 0
-21 -4 -38 27 0
-21 -5 -38 27 0
-21 -6 -38 27 0
-21 -1 -39 26 0
-21 -2 -39 27 0
-21 -3 -39 28 0
-21 -4 -39 28 0
-21 -5 -39 28 0
-21 -6 -39 28 0
-21 -1 -40 26 0
-21 -2 -40 27 0
-21 -3 -40 28 0
-21 -4 -40 28 0
-21 -5 -40 28 0
-21 -6 -40 28 0
-21 -1 -41 26 0
-21 -2 -41 27 0
-21 -3 -41 28 0
-21 -4 -41 28 0
-21 -5 -41 28 0
-21 -6 -41 28 0
-21 -1 -42 26 0
-21 -2 -42 27 0
-21 -3 -42 28 0
-21 -4 -42 28 0
-21 -5 -42 28 0
-21 -6 -42 28 0
-22 -1 -37 26 0
-22 -2 -37 26 0
-22 -3 -37 26 0
-22 -4 -37 26 0
-22 -5 -37 26 0
-22 -6 -37 26 0
-22 -1 -38 26 0
-22 -2 -38 27 0
-22 -3 -38 27 0
-22 -4 -38 27 0
-22 -5 -38 27 0
-22 -6 -38 27 0
-22 -1 -39 26 0
-22 -2 -39 27 0
-22 -3 -39 28 0
-22 -4 -39 28 0
-22 -5 -39 28 0
-22 -6 -39 28 0
-22 -1 -40 26 0
-22 -2 -40 27 0
-22 -3 -40 28 0
-22 -4 -40 29 0
-22 -5 -40 29 0
-22 -6 -40 29 0
-22 -1 -41 26 0
-22 -2 -41 27 0
-22 -3 -41 28 0
-22 -4 -41 29 0
-22 -5 -41 29 0
-22 -6 -41 29 0
-22 -1 -42 26 0
-22 -2 -42 27 0
-22 -3 -42 28 0
-22 -4 -42 29 0
-22 -5 -42 29 0
-22 -6 -42 29 0
-23 -1 -37 26 0
-23 -2 -37 26 0
-23 -3 -37 26 0
-23 -4 -37 26 0
-23 -5 -37 26 0
-23 -6 -37 26 0
-23 -1 -38 26 0
-23 -2 -38 27 0
-23 -3 -38 27 0
-23 -4 -38 27 0
-23 -5 -38 27 0
-23 -6 -38 27 0
-23 -1 -39 26 0
-23 -2 -39 27 0
-23 -3 -39 28 0
-23 -4 -39 28 0
-23 -5 -39 28 0
-23 -6 -39 28 0
-23 -1 -40 26 0
-23 -2 -40 27 0
-23 -3 -40 28 0
-23 -4 -40 29 0
-23 -5 -40 29 0
-23 -6 -40 29 0
-23 -1 -41 26 0
-23 -2 -41 27 0
-23 -3 -41 28 0
-23 -4 -41 29 0
-23 -5 -41 30 0
-23 -6 -41 30 0
-23 -1 -42 26 0
-23 -2 -42 27 0
-23 -3 -42 28 0
-23 -4 -42 29 0
-23 -5 -42 30 0
-23 -6 -42 30 0
-24 -1 -37 26 0
-24 -2 -37 26 0
-24 -3 -37 26 0
-24 -4 -37 26 0
-24 -5 -37 26 0
-24 -6 -37 26 0
-24 -1 -38 26 0
-24 -2 -38 27 0
-24 -3 -38 27 0
-24 -4 -38 27 0
-24 -5 -38 27 0
-24 -6 -38 27 0
-24 -1 -39 26 0
-24 -2 -39 27 0
-24 -3 -39 28 0
-24 -4 -39 28 0
-24 -5 -39 28 0
-24 -6 -39 28 0
-24 -1 -40 26 0
-24 -2 -40 27 0
-24 -3 -40 28 0
-24 -4 -40 29 0
-24 -5 -40 29 0
-24 -6 -40 29 0
-24 -1 -41 26 0
-24 -2 -41 27 0
-24 -3 -41 28 0
-24 -4 -41 29 0
-24 -5 -41 30 0
-24 -6 -41 30 0
-24 -1 -42 26 0
-24 -2 -42 27 0
-24 -3 -42 28 0
-24 -4 -42 29 0
-24 -5 -42 30 0
-24 -6 -42 25 0
-37 -1 -19 44 0
-37 -2 -19 44 0
-37 -3 -19 44 0
-37 -4 -19 44 0
-37 -5 -19 44 0
-37 -6 -19 44 0
-37 -1 -20 44 0
-37 -2 -20 44 0
-37 -3 -20 44 0
-37 -4 -20 44 0
-37 -5 -20 44 0
-37 -6 -20 44 0
-37 -1 -21 44 0
-37 -2 -21 44 0
-37 -3 -21 44 0
-37 -4 -21 44 0
-37 -5 -21 44 0
-37 -6 -21 44 0
-37 -1 -22 44 0
-37 -2 -22 44 0
-37 -3 -22 44 0
-37 -4 -22 44 0
-37 -5 -22 44 0
-37 -6 -22 44 0
-37 -1 -23 44 0
-37 -2 -23 44 0
-37 -3 -23 44 0
-37 -4 -23 44 0
-37 -5 -23 44 0
-37 -6 -23 44 0
-37 -1 -24 44 0
-37 -2 -24 44 0
-37 -3 -24 44 0
-37 -4 -24 44 0
-37 -5 -24 44 0
-37 -6 -24 44 0
-38 -1 -19 44 0
-38 -2 -19 44 0
-38 -3 -19 44 0
-38 -4 -19 44 0
-38 -5 -19 44 0
-38 -6 -19 44 0
-38 -1 -20 44 0
-38 -2 -20 45 0
-38 -3 -20 45 0
-38 -4 -20 45 0
-38 -5 -20 45 0
-38 -6 -20 45 0
-38 -1 -21 44 0
-38 -2 -21 45 0
-38 -3 -21 45 0
-38 -4 -21 45 0
-38 -5 -21 45 0
-38 -6 -21 45 0
-38 -1 -22 44 0
-38 -2 -22 45 0
-38 -3 -22 45 0
-38 -4 -22 45 0
-38 -5 -22 45 0
-38 -6 -22 45 0
-38 -1 -23 44 0
-38 -2 -23 45 0
-38 -3 -23 45 0
-38 -4 -23 45 0
-38 -5 -23 45 0
-38 -6 -23 45 0
-38 -1 -24 44 0
-38 -2 -24 45 0
-38 -3 -24 45 0
-38 -4 -24 45 0
-38 -5 -24 45 0
-38 -6 -24 45 0
-39 -1 -19 44 0
-39 -2 -19 44 0
-39 -3 -19 44 0
-39 -4 -19 44 0
-39 -5 -19 44 0
-39 -6 -19 44 0
-39 -1 -20 44 0
-39 -2 -20 45 0
-39 -3 -20 45 0
-39 -4 -20 45 0
-39 -5 -20 45 0
-39 -6 -20 45 0
-39 -1 -21 44 0
-39 -2 -21 45 0
-39 -3 -21 46 0
-39 -4 -21 46 0
-39 -5 -21 46 0
-39 -6 -21 46 0
-39 -1 -22 44 0
-39 -2 -22 45 0
-39 -3 -22 46 0
-39 -4 -22 46 0
-39 -5 -22 46 0
-39 -6 -22 46 0
-39 -1 -23 44 0
-39 -2 -23 45 0
-39 -3 -23 46 0
-39 -4 -23 46 0
-39 -5 -23 46 0
-39 -6 -23 46 0
-39 -1 -24 44 0
-39 -2 -24 45 0
-39 -3 -24 46 0
-39 -4 -24 46 0
-39 -5 -24 46 0
-39 -6 -24 46 0
-40 -1 -19 44 0
-40 -2 -19 44 0
-40 -3 -19 44 0
-40 -4 -19 44 0
-40 -5 -19 44 0
-40 -6 -19 44 0
-40 -1 -20 44 0
-40 -2 -20 45 0
-40 -3 -20 45 0
-40 -4 -20 45 0
-40 -5 -20 45 0
-40 -6 -20 45 0
-40 -1 -21 44 0
-40 -2 -21 45 0
-40 -3 -21 46 0
-40 -4 -21 46 0
-40 -5 -21 46 0
-40 -6 -21 46 0
-40 -1 -22 44 0
-40 -2 -22 45 0
-40 -3 -22 46 0
-40 -4 -22 47 0
-40 -5 -22 47 0
-40 -6 -22 47 0
-40 -1 -23 44 0
-40 -2 -23 45 0
-40 -3 -23 46 0
-40 -4 -23 47 0
-40 -5 -23 47 0
-40 -6 -23 47 0
-40 -1 -24 44 0
-40 -2 -24 45 0
-40 -3 -24 46 0
-40 -4 -24 47 0
-40 -5 -24 47 0
-40 -6 -24 47 0
-41 -1 -19 44 0
-41 -2 -19 44 0
-41 -3 -19 44 0
-41 -4 -19 44 0
-41 -5 -19 44 0
-41 -6 -19 44 0
-41 -1 -20 44 0
-41 -2 -20 45 0
-41 -3 -20 45 0
-41 -4 -20 45 0
-41 -5 -20 45 0
-41 -6 -20 45 0
-41 -1 -21 44 0
-41 -2 -21 45 0
-41 -3 -21 46 0
-41 -4 -21 46 0
-41 -5 -21 46 0
-41 -6 -21 46 0
-41 -1 -22 44 0
-41 -2 -22 45 0
-41 -3 -22 46 0
-41 -4 -22 47 0
-41 -5 -22 47 0
-41 -6 -22 47 0
-41 -1 -23 44 0
-41 -2 -23 45 0
-41 -3 -23 46 0
-41 -4 -23 47 0
-41 -5 -23 48 0
-41 -6 -23 48 0
-41 -1 -24 44 0
-41 -2 -24 45 0
-41 -3 -24 46 0
-41 -4 -24 47 0
-41 -5 -24 48 0
-41 -6 -24 48 0
-42 -1 -19 44 0
-42 -2 -19 44 0
-42 -3 -19 44 0
-42 -4 -19 44 0
-42 -5 -19 44 0
-42 -6 -19 44 0
-42 -1 -20 44 0
-42 -2 -20 45 0
-42 -3 -20 45 0
-42 -4 -20 45 0
-42 -5 -20 45 0
-42 -6 -20 45 0
-42 -1 -21 44 0
-42 -2 -21 45 0
-42 -3 -21 46 0
-42 -4 -21 46 0
-42 -5 -21 46 0
-42 -6 -21 46 0
-42 -1 -22 44 0
-42 -2 -22 45 0
-42 -3 -22 46 0
-42 -4 -22 47 0
-42 -5 -22 47 0
-42 -6 -22 47 0
-42 -1 -23 44 0
-42 -2 -23 45 0
-42 -3 -23 46 0
-42 -4 -23 47 0
-42 -5 -23 48 0
-42 -6 -23 48 0
-42 -1 -24 44 0
-42 -2 -24 45 0
-42 -3 -24 46 0
-42 -4 -24 47 0
-42 -5 -24 48 0
-42 -6 -24 43 0
-7 -25 -43 14 0
-7 -26 -43 14 0
-7 -27 -43 14 0
-7 -28 -43 14 0
-7 -29 -43 14 0
-7 -30 -43 14 0
-7 -25 -44 14 0
-7 -26 -44 14 0
-7 -27 -44 14 0
-7 -28 -44 14 0
-7 -29 -44 14 0
-7 -30 -44 14 0
-7 -25 -45 14 0
-7 -26 -45 14 0
-7 -27 -45 14 0
-7 -28 -45 14 0
-7 -29 -45 14 0
-7 -30 -45 14 0
-7 -25 -46 14 0
-7 -26 -46 14 0
-7 -27 -46 14 0
-7 -28 -46 14 0
-7 -29 -46 14 0
-7 -30 -46 14 0
-7 -25 -47 14 0
-7 -26 -47 14 0
-7 -27 -47 14 0
-7 -28 -47 14 0
-7 -29 -47 14 0
-7 -30 -47 14 0
-7 -25 -48 14 0
-7 -26 -48 14 0
-7 -27 -48 14 0
-7 -28 -48 14 0
-7 -29 -48 14 0
-7 -30 -48 14 0
-8 -25 -43 14 0
-8 -26 -43 14 0
-8 -27 -43 14 0
-8 -28 -43 14 0
-8 -29 -43 14 0
-8 -30 -43 14 0
-8 -25 -44 14 0
-8 -26 -44 15 0
-8 -27 -44 15 0
-8 -28 -44 15 0
-8 -29 -44 15 0
-8 -30 -44 15 0
-8 -25 -45 14 0
-8 -26 -45 15 0
-8 -27 -45 15 0
-8 -28 -45 15 0
-8 -29 -45 15 0
-8 -30 -45 15 0
-8 -25 -46 14 0
-8 -26 -46 15 0
-8 -27 -46 15 0
-8 -28 -46 15 0
-8 -29 -46 15 0
-8 -30 -46 15 0
-8 -25 -47 14 0
-8 -26 -47 15 0
-8 -27 -47 15 0
-8 -28 -47 15 0
-8 -29 -47 15 0
-8 -30 -47 15 0
-8 -25 -48 14 0
-8 -26 -48 15 0
-8 -27 -48 15 0
-8 -28 -48 15 0
-8 -29 -48 15 0
-8 -30 -48 15 0
-9 -25 -43 14 0
-9 -26 -43 14 0
-9 -27 -43 14 0
-9 -28 -43 14 0
-9 -29 -43 14 0
-9 -30 -43 14 0
-9 -25 -44 14 0
-9 -26 -44 15 0
-9 -27 -44 15 0
-9 -28 -44 15 0
-9 -29 -44 15 0
-9 -30 -44 15 0
-9 -25 -45 14 0
-9 -26 -45 15 0
-9 -27 -45 16 0
-9 -28 -45 16 0
-9 -29 -45 16 0
-9 -30 -45 16 0
-9 -25 -46 14 0
-9 -26 -46 15 0
-9 -27 -46 16 0
-9 -28 -46 16 0
-9 -29 -46 16 0
-9 -30 -46 16 0
-9 -25 -47 14 0
-9 -26 -47 15 0
-9 -27 -47 16 0
-9 -28 -47 16 0
-9 -29 -47 16 0
-9 -30 -47 16 0
-9 -25 -48 14 0
-9 -26 -48 15 0
-9 -27 -48 16 0
-9 -28 -48 16 0
-9 -29 -48 16 0
-9 -30 -48 16 0
-10 -25 -43 14 0
-10 -26 -43 14 0
-10 -27 -43 14 0
-10 -28 -43 14 0
-10 -29 -43 14 0
-10 -30 -43 14 0
-10 -25 -44 14 0
-10 -26 -44 15 0
-10 -27 -44 15 0
-10 -28 -44 15 0
-10 -29 -44 15 0
-10 -30 -44 15 0
-10 -25 -45 14 0
-10 -26 -45 15 0
-10 -27 -45 16 0
-10 -28 -45 16 0
-10 -29 -45 16 0
-10 -30 -45 16 0
-10 -25 -46 14 0
-10 -26 -46 15 0
-10 -27 -46 16 0
-10 -28 -46 17 0
-10 -29 -46 17 0
-10 -30 -46 17 0
-10 -25 -47 14 0
-10 -26 -47 15 0
-10 -27 -47 16 0
-10 -28 -47 17 0
-10 -29 -47 17 0
-10 -30 -47 17 0
-10 -25 -48 14 0
-10 -26 -48 15 0
-10 -27 -48 16 0
-10 -28 -48 17 0
-10 -29 -48 17 0
-10 -30 -48 17 0
-11 -25 -43 14 0
-11 -26 -43 14 0
-11 -27 -43 14 0
-11 -28 -43 14 0
-11 -29 -43 14 0
-11 -30 -43 14 0
-11 -25 -44 14 0
-11 -26 -44 15 0
-11 -27 -44 15 0
-11 -28 -44 15 0
-11 -29 -44 15 0
-11 -30 -44 15 0
-11 -25 -45 14 0
-11 -26 -45 15 0
-11 -27 -45 16 0
-11 -28 -45 16 0
-11 -29 -45 16 0
-11 -30 -45 16 0
-11 -25 -46 14 0
-11 -26 -46 15 0
-11 -27 -46 16 0
-11 -28 -46 17 0
-11 -29 -46 17 0
-11 -30 -46 17 0
-11 -25 -47 14 0
-11 -26 -47 15 0
-11 -27 -47 16 0
-11 -28 -47 17 0
-11 -29 -47 18 0
-11 -30 -47 18 0
-11 -25 -48 14 0
-11 -26 -48 15 0
-11 -27 -48 16 0
-11 -28 -48 17 0
-11 -29 -48 18 0
-11 -30 -48 18 0
-12 -25 -43 14 0
-12 -26 -43 14 0
-12 -27 -43 14 0
-12 -28 -43 14 0
-12 -29 -43 14 0
-12 -30 -43 14 0
-12 -25 -44 14 0
-12 -26 -44 15 0
-12 -27 -44 15 0
-12 -28 -44 15 0
-12 -29 -44 15 0
-12 -30 -44 15 0
-12 -25 -45 14 0
-12 -26 -45 15 0
-12 -27 -45 16 0
-12 -28 -45 16 0
-12 -29 -45 16 0
-12 -30 -45 16 0
-12 -25 -46 14 0
-12 -26 -46 15 0
-12 -27 -46 16 0
-12 -28 -46 17 0
-12 -29 -46 17 0
-12 -30 -46 17 0
-12 -25 -47 14 0
-12 -26 -47 15 0
-12 -27 -47 16 0
-12 -28 -47 17 0
-12 -29 -47 18 0
-12 -30 -47 18 0
-12 -25 -48 14 0
-12 -26 -48 15 0
-12 -27 -48 16 0
-12 -28 -48 17 0
-12 -29 -48 18 0
-12 -30 -48 13 0
-25 -7 -43 32 0
-25 -8 -43 32 0
-25 -9 -43 32 0
-25 -10 -43 32 0
-25 -11 -43 32 0
-25 -12 -43 32 0
-25 -7 -44 32 0
-25 -8 -44 32 0
-25 -9 -44 32 0
-25 -10 -44 32 0
-25 -11 -44 32 0
-25 -12 -44 32 0
-25 -7 -45 32 0
-25 -8 -45 32 0
-25 -9 -45 32 0
-25 -10 -45 32 0
-25 -11 -45 32 0
-25 -12 -45 32 0
-25 -7 -46 32 0
-25 -8 -46 32 0
-25 -9 -46 32 0
-25 -10 -46 32 0
-25 -11 -46 32 0
-25 -12 -46 32 0
-25 -7 -47 32 0
-25 -8 -47 32 0
-25 -9 -47 32 0
-25 -10 -47 32 0
-25 -11 -47 32 0
-25 -12 -47 32 0
-25 -7 -48 32 0
-25 -8 -48 32 0
-25 -9 -48 32 0
-25 -10 -48 32 0
-25 -11 -48 32 0
-25 -12 -48 32 0
-26 -7 -43 32 0
-26 -8 -43 32 0
-26 -9 -43 32 0
-26 -10 -43 32 0
-26 -11 -43 32 0
-26 -12 -43 32 0
-26 -7 -44 32 0
-26 -8 -44 33 0
-26 -9 -44 33 0
-26 -10 -44 33 0
-26 -11 -44 33 0
-26 -12 -44 33 0
-26 -7 -45 32 0
-26 -8 -45 33 0
-26 -9 -45 33 0
-26 -10 -45 33 0
-26 -11 -45 33 0
-26 -12 -45 33 0
-26 -7 -46 32 0
-26 -8 -46 33 0
-26 -9 -46 33 0
-26 -10 -46 33 0
-26 -11 -46 33 0
-26 -12 -46 33 0
-26 -7 -47 32 0
-26 -8 -47 33 0
-26 -9 -47 33 0
-26 -10 -47 33 0
-26 -11 -47 33 0
-26 -12 -47 33 0
-26 -7 -48 32 0
-26 -8 -48 33 0
-26 -9 -48 33 0
-26 -10 -48 33 0
-26 -11 -48 33 0
-26 -12 -48 33 0
-27 -7 -43 32 0
-27 -8 -43 32 0
-27 -9 -43 32 0
-27 -10 -43 32 0
-27 -11 -43 32 0
-27 -12 -43 32 0
-27 -7 -44 32 0
-27 -8 -44 33 0
-27 -9 -44 33 0
-27 -10 -44 33 0
-27 -11 -44 33 0
-27 -12 -44 33 0
-27 -7 -45 32 0
-27 -8 -45 33 0
-27 -9 -45 34 0
-27 -10 -45 34 0
-27 -11 -45 34 0
-27 -12 -45 34 0
-27 -7 -46 32 0
-27 -8 -46 33 0
-27 -9 -46 34 0
-27 -10 -46 34 0
-27 -11 -46 34 0
-27 -12 -46 34 0
-27 -7 -47 32 0
-27 -8 -47 33 0
-27 -9 -47 34 0
-27 -10 -47 34 0
-27 -11 -47 34 0
-27 -12 -47 34 0
-27 -7 -48 32 0
-27 -8 -48 33 0
-27 -9 -48 34 0
-27 -10 -48 34 0
-27 -11 -48 34 0
-27 -12 -48 34 0
-28 -7 -43 32 0
-28 -8 -43 32 0
-28 -9 -43 32 0
-28 -10 -43 32 0
-28 -11 -43 32 0
-28 -12 -43 32 0
-28 -7 -44 32 0
-28 -8 -44 33 0
-28 -9 -44 33 0
-28 -10 -44 33 0
-28 -11 -44 33 0
-28 -12 -44 33 0
-28 -7 -45 32 0
-28 -8 -45 33 0
-28 -9 -45 34 0
-28 -10 -45 34 0
-28 -11 -45 34 0
-28 -12 -45 34 0
-28 -7 -46 32 0
-28 -8 -46 33 0
-28 -9 -46 34 0
-28 -10 -46 35 0
-28 -11 -46 35 0
-28 -12 -46 35 0
-28 -7 -47 32 0
-28 -8 -47 33 0
-28 -9 -47 34 0
-28 -10 -47 35 0
-28 -11 -47 35 0
-28 -12 -47 35 0
-28 -7 -48 32 0
-28 -8 -48 33 0
-28 -9 -48 34 0
-28 -10 -48 35 0
-28 -11 -48 35 0
-28 -12 -48 35 0
-29 -7 -43 32 0
-29 -8 -43 32 0
-29 -9 -43 32 0
-29 -10 -43 32 0
-29 -11 -43 32 0
-29 -12 -43 32 0
-29 -7 -44 32 0
-29 -8 -44 33 0
-29 -9 -44 33 0
-29 -10 -44 33 0
-29 -11 -44 33 0
-29 -12 -44 33 0
-29 -7 -45 32 0
-29 -8 -45 33 0
-29 -9 -45 34 0
-29 -10 -45 34 0
-29 -11 -45 34 0
-29 -12 -45 34 0
-29 -7 -46 32 0
-29 -8 -46 33 0
-29 -9 -46 34 0
-29 -10 -46 35 0
-29 -11 -46 35 0
-29 -12 -46 35 0
-29 -7 -47 32 0
-29 -8 -47 33 0
-29 -9 -47 34 0
-29 -10 -47 35 0
-29 -11 -47 36 0
-29 -12 -47 36 0
-29 -7 -48 32 0
-29 -8 -48 33 0
-29 -9 -48 34 0
-29 -10 -48 35 0
-29 -11 -48 36 0
-29 -12 -48 36 0
-30 -7 -43 32 0
-30 -8 -43 32 0
-30 -9 -43 32 0
-30 -10 -43 32 0
-30 -11 -43 32 0
-30 -12 -43 32 0
-30 -7 -44 32 0
-30 -8 -44 33 0
-30 -9 -44 33 0
-30 -10 -44 33 0
-30 -11 -44 33 0
-30 -12 -44 33 0
-30 -7 -45 32 0
-30 -8 -45 33 0
-30 -9 -45 34 0
-30 -10 -45 34 0
-30 -11 -45 34 0
-30 -12 -45 34 0
-30 -7 -46 32 0
-30 -8 -46 33 0
-30 -9 -46 34 0
-30 -10 -46 35 0
-30 -11 -46 35 0
-30 -12 -46 35 0
-30 -7 -47 32 0
-30 -8 -47 33 0
-30 -9 -47 34 0
-30 -10 -47 35 0
-30 -11 -47 36 0
-30 -12 -47 36 0
-30 -7 -48 32 0
-30 -8 -48 33 0
-30 -9 -48 34 0
-30 -10 -48 35 0
-30 -11 -48 36 0
-30 -12 -48 31 0
-43 -7 -25 50 0
-43 -8 -25 50 0
-43 -9 -25 50 0
-43 -10 -25 50 0
-43 -11 -25 50 0
-43 -12 -25 50 0
-43 -7 -26 50 0
-43 -8 -26 50 0
-43 -9 -26 50 0
-43 -10 -26 50 0
-43 -11 -26 50 0
-43 -12 -26 50 0
-43 -7 -27 50 0
-43 -8 -27 50 0
-43 -9 -27 50 0
-43 -10 -27 50 0
-43 -11 -27 50 0
-43 -12 -27 50 0
-43 -7 -28 50 0
-43 -8 -28 50 0
-43 -9 -28 50 0
-43 -10 -28 50 0
-43 -11 -28 50 0
-43 -12 -28 50 0
-43 -7 -29 50 0
-43 -8 -29 50 0
-43 -9 -29 50 0
-43 -10 -29 50 0
-43 -11 -29 50 0
-43 -12 -29 50 0
-43 -7 -30 50 0
-43 -8 -30 50 0
-43 -9 -30 50 0
-43 -10 -30 50 0
-43 -11 -30 50 0
-43 -12 -30 50 0
-44 -7 -25 50 0
-44 -8 -25 50 0
-44 -9 -25 50 0
-44 -10 -25 50 0
-44 -11 -25 50 0
-44 -12 -25 50 0
-44 -7 -26 50 0
-44 -8 -26 51 0
-44 -9 -26 51 0
-44 -10 -26 51 0
-44 -11 -26 51 0
-44 -12 -26 51 0
-44 -7 -27 50 0
-44 -8 -27 51 0
-44 -9 -27 51 0
-44 -10 -27 51 0
-44 -11 -27 51 0
-44 -12 -27 51 0
-44 -7 -28 50 0
-44 -8 -28 51 0
-44 -9 -28 51 0
-44 -10 -28 51 0
-44 -11 -28 51 0
-44 -12 -28 51 0
-44 -7 -29 50 0
-44 -8 -29 51 0
-44 -9 -29 51 0
-44 -10 -29 51 0
-44 -11 -29 51 0
-44 -12 -29 51 0
-44 -7 -30 50 0
-44 -8 -30 51 0
-44 -9 -30 51 0
-44 -10 -30 51 0
-44 -11 -30 51 0
-44 -12 -30 51 0
-45 -7 -25 50 0
-45 -8 -25 50 0
-45 -9 -25 50 0
-45 -10 -25 50 0
-45 -11 -25 50 0
-45 -12 -25 50 0
-45 -7 -26 50 0
-45 -8 -26 51 0
-45 -9 -26 51 0
-45 -10 -26 51 0
-45 -11 -26 51 0
-45 -12 -26 51 0
-45 -7 -27 50 0
-45 -8 -27 51 0
-45 -9 -27 52 0
-45 -10 -27 52 0
-45 -11 -27 52 0
-45 -12 -27 52 0
-45 -7 -28 50 0
-45 -8 -28 51 0
-45 -9 -28 52 0
-45 -10 -28 52 0
-45 -11 -28 52 0
-45 -12 -28 52 0
-45 -7 -29 50 0
-45 -8 -29 51 0
-45 -9 -29 52 0
-45 -10 -29 52 0
-45 -11 -29 52 0
-45 -12 -29 52 0
-45 -7 -30 50 0
-45 -8 -30 51 0
-45 -9 -30 52 0
-45 -10 -30 52 0
-45 -11 -30 52 0
-45 -12 -30 52 0
-46 -7 -25 50 0
-46 -8 -25 50 0
-46 -9 -25 50 0
-46 -10 -25 50 0
-46 -11 -25 50 0
-46 -12 -25 50 0
-46 -7 -26 50 0
-46 -8 -26 51 0
-46 -9 -26 51 0
-46 -10 -26 51 0
-46 -11 -26 51 0
-46 -12 -26 51 0
-46 -7 -27 50 0
-46 -8 -27 51 0
-46 -9 -27 52 0
-46 -10 -27 52 0
-46 -11 -27 52 0
-46 -12 -27 52 0
-46 -7 -28 50 0
-46 -8 -28 51 0
-46 -9 -28 52 0
-46 -10 -28 53 0
-46 -11 -28 53 0
-46 -12 -28 53 0
-46 -7 -29 50 0
-46 -8 -29 51 0
-46 -9 -29 52 0
-46 -10 -29 53 0
-46 -11 -29 53 0
-46 -12 -29 53 0
-46 -7 -30 50 0
-46 -8 -30 51 0
-46 -9 -30 52 0
-46 -10 -30 53 0
-46 -11 -30 53 0
-46 -12 -30 53 0
-47 -7 -25 50 0
-47 -8 -25 50 0
-47 -9 -25 50 0
-47 -10 -25 50 0
-47 -11 -25 50 0
-47 -12 -25 50 0
-47 -7 -26 50 0
-47 -8 -26 51 0
-47 -9 -26 51 0
-47 -10 -26 51 0
-47 -11 -26 51 0
-47 -12 -26 51 0
-47 -7 -27 50 0
-47 -8 -27 51 0
-47 -9 -27 52 0
-47 -10 -27 52 0
-47 -11 -27 52 0
-47 -12 -27 52 0
-47 -7 -28 50 0
-47 -8 -28 51 0
-47 -9 -28 52 0
-47 -10 -28 53 0
-47 -11 -28 53 0
-47 -12 -28 53 0
-47 -7 -29 50 0
-47 -8 -29 51 0
-47 -9 -29 52 0
-47 -10 -29 53 0
-47 -11 -29 54 0
-47 -12 -29 54 0
-47 -7 -30 50 0
-47 -8 -30 51 0
-47 -9 -30 52 0
-47 -10 -30 53 0
-47 -11 -30 54 0
-47 -12 -30 54 0
-48 -7 -25 50 0
-48 -8 -25 50 0
-48 -9 -25 50 0
-48 -10 -25 50 0
-48 -11 -25 50 0
-48 -12 -25 50 0
-48 -7 -26 50 0
-48 -8 -26 51 0
-48 -9 -26 51 0
-48 -10 -26 51 0
-48 -11 -26 51 0
-48 -12 -26 51 0
-48 -7 -27 50 0
-48 -8 -27 51 0
-48 -9 -27 52 0
-48 -10 -27 52 0
-48 -11 -27 52 0
-48 -12 -27 52 0
-48 -7 -28 50 0
-48 -8 -28 51 0
-48 -9 -28 52 0
-48 -10 -28 53 0
-48 -11 -28 53 0
-48 -12 -28 53 0
-48 -7 -29 50 0
-48 -8 -29 51 0
-48 -9 -29 52 0
-48 -10 -29 53 0
-48 -11 -29 54 0
-48 -12 -29 54 0
-48 -7 -30 50 0
-48 -8 -30 51 0
-48 -9 -30 52 0
-48 -10 -30 53 0
-48 -11 -30 54 0
-48 -12 -30 49 0
56 57 0
64 65 66 67 68 69 -56 0
1 -64 0
7 -64 0
2 -65 0
8 -65 0
3 -66 0
9 -66 0
4 -67 0
10 -67 0
5 -68 0
11 -68 0
6 -69 0
12 -69 0
82 83 84 85 86 87 -56 0
19 -82 0
25 -82 0
20 -83 0
26 -83 0
21 -84 0
27 -84 0
22 -85 0
28 -85 0
23 -86 0
29 -86 0
24 -87 0
30 -87 0
100 101 102 103 104 105 -56 0
37 -100 0
43 -100 0
38 -101 0
44 -101 0
39 -102 0
45 -102 0
40 -103 0
46 -103 0
41 -104 0
47 -104 0
42 -105 0
48 -105 0
70 71 72 73 74 75 -57 0
1 -70 0
13 -70 0
2 -71 0
14 -71 0
3 -72 0
15 -72 0
4 -73 0
16 -73 0
5 -74 0
17 -74 0
6 -75 0
18 -75 0
88 89 90 91 92 93 -57 0
19 -88 0
31 -88 0
20 -89 0
32 -89 0
21 -90 0
33 -90 0
22 -91 0
34 -91 0
23 -92 0
35 -92 0
24 -93 0
36 -93 0
106 107 108 109 110 111 -57 0
37 -106 0
49 -106 0
38 -107 0
50 -107 0
39 -108 0
51 -108 0
40 -109 0
52 -109 0
41 -110 0
53 -110 0
42 -111 0
54 -111 0
-1 -19 -37 0
-2 -20 -38 0
-3 -21 -39 0
-4 -22 -40 0
-5 -23 -41 0
-6 -24 -42 0
-19 -2 0
-37 -2 0
-19 -3 0
-37 -3 0
-19 -4 0
-37 -4 0
-19 -5 0
-37 -5 0
-19 -6 0
-37 -6 0
-20 -3 0
-38 -3 0
-20 -4 0
-38 -4 0
-20 -5 0
-38 -5 0
-20 -6 0
-38 -6 0
-21 -4 0
-39 -4 0
-21 -5 0
-39 -5 0
-21 -6 0
-39 -6 0
-22 -5 0
-40 -5 0
-22 -6 0
-40 -6 0
-23 -6 0
-41 -6 0
